(set-logic DTNIA)
(synth-fun f0 () Int ((Ix Int) (Ic Int))
 ((Ix Int (Ic (- Ix) (+ Ix Ix))) (Ic Int ((Constant Int)))))
(declare-var p Int)
(constraint (or (not (= (mod p 2) 0)) (= (mod p 2) f0)))
(check-synth)
